Bi6 Se9
1.0
   4.1676721109364330    0.0000000000000000    0.0000000000000000
  -2.0838360554682165    3.6093099217273474    0.0000000000000000
   0.0000000000000000    0.0000000000000000   28.9470443228257963
Bi Se
6 9
direct
   0.3347912817790417    0.6682241419823476    0.7545943771786865 Bi
   0.3353695722098091    0.6681669476573078    0.9481683195210078 Bi
   0.6687596059086935    0.3359400241980817    0.0798691188921355 Bi
   0.6682394490120257    0.3348261936742999    0.2785229704094844 Bi
   0.0022227412779006    0.0017925824534708    0.4116450427807580 Bi
   0.0018219155652961    0.0022101406121821    0.6220530991199306 Bi
   0.0028443057373512    0.0027862623764575    0.0138783673449697 Se
   0.6683394140019362    0.3353291547920877    0.8942087335100662 Se
   0.0019454640466784    0.0024211775551769    0.8090634127380096 Se
   0.3352609325991335    0.6676903918149357    0.3448358876144889 Se
   0.0024492434265551    0.0020088095505450    0.2238459186212356 Se
   0.3358617988002272    0.6689153854693126    0.1343058649449904 Se
   0.6676751738326893    0.3352741010390694    0.6886702630707882 Se
   0.3347862214058172    0.6680682320996322    0.5676688027205932 Se
   0.6680604266700263    0.3347739989044611    0.4660531427051886 Se
